c This is QMaxSAT 2017 based on 14.07
c This is Glucose 3.0
c This is MiniSat 2.2.0
c WARNING: for repeatability, setting FPU to use double precision
c card = mrwto, comp = 0, pmodel = 0, narr = 2, mct = 16, verb = 0
cr firstCPXsol 0 0 0
c top = 214379
c |  Number of variables:    578                                              |
c |  Number of clauses:      8089                                             |
c |  Weight of hard clauses: 214379                                           |
c |  Number of soft clauses: 540                                              |
c |  Number of unit soft clauses: 0                                           |
c |  Maximum Cardinality (by unit): 473168       (0           )               |
c last restart ## conflicts  :  106 125 
o 14691 | cpuTime 0.081967 s
c Sum of weights = 236584
c A number of soft clauses remained = 270
c MRWTO encoding for Pseudo-Boolean Constraints
c sizeMax=14691
c No.0 Divisor=12	generated by pow1
c No.1 Divisor=11	generated by pow1
c No.2 Divisor=12	generated by pow1
c No.3 Divisor=12	generated by pow1
c p0= 12	p1= 11	p2= 12	p3= 12	
c number of digits = 5
c linkingVar[0].size = 12, linkingVar[1].size = 11, linkingVar[2].size = 12, linkingVar[3].size = 10, linkingVar[4].size = 1, 
c Pseudo-Boolean Constraints: 7788 variables and 80696 clauses
c Sum of weights = 236584
c A number of soft clauses remained = 270
c MRWTO encoding for Pseudo-Boolean Constraints
c sizeMax=14691
c No.0 Divisor=12	generated by pow1
c No.1 Divisor=11	generated by pow1
c No.2 Divisor=12	generated by pow1
c No.3 Divisor=12	generated by pow1
c p0= 12	p1= 11	p2= 12	p3= 12	
c number of digits = 5
c linkingVar[0].size = 12, linkingVar[1].size = 11, linkingVar[2].size = 12, linkingVar[3].size = 10, linkingVar[4].size = 1, 
c Pseudo-Boolean Constraints: 7788 variables and 80696 clauses
c last restart ## conflicts  :  42 1027 
o 13607 | cpuTime 0.195439 s
c last restart ## conflicts  :  87 1751 
o 13270 | cpuTime 0.19982 s
c last restart ## conflicts  :  212 1394 
o 13219 | cpuTime 0.208525 s
c last restart ## conflicts  :  162 1367 
o 9968 | cpuTime 0.21571 s
c last restart ## conflicts  :  40 2745 
o 8146 | cpuTime 0.356883 s
c last restart ## conflicts  :  54 1297 
o 7527 | cpuTime 0.372243 s
c last restart ## conflicts  :  504 972 
o 7365 | cpuTime 0.909924 s
c last restart ## conflicts  :  360 958 
o 6751 | cpuTime 1.05832 s
c last restart ## conflicts  :  597 753 
o 6516 | cpuTime 1.32355 s
c last restart ## conflicts  :  293 1068 
o 6463 | cpuTime 5.7929 s
c last restart ## conflicts  :  3276 495 
o 6392 | cpuTime 1892.79 s
c last restart ## conflicts  :  187 674 
o 6306 | cpuTime 1893.33 s
c last restart ## conflicts  :  89 735 
o 6077 | cpuTime 1895.11 s
c last restart ## conflicts  :  457 708 
o 5939 | cpuTime 1896.34 s
s UNKNOWN
c Search is stopped by a limit (maybe time-limit)
cr positiVarArr: [ | 17(1->16) | 30(1->12) | 38(2->3) | 58(3->6) | 77(4->8) | 101(5->15) | 107(6->4) | 122(7->2) | 138(8->1) | 165(9->11) | 178(10->7) | 193(11->5) | 215(12->10) | 236(13->14) | 248(14->9) | 256(15->1) | 286(16->13) | ]
cr the 1-th chain: [ 1->16->13->14->9->11->5->15->1 ] (#non-depot=7) {#cumul.=8}
cr the 2-th chain: [ 1->12->10->7->2->3->6->4->8->1 ] (#non-depot=8) {#cumul.=16}
c Latest Answer = 0 by 15 loops
c restarts              : 73518
c conflicts             : 10758514       (2991 /sec)
c decisions             : 18975927       (0.00 % random) (5275 /sec)
c propagations          : 430532283      (119678 /sec)
c conflict literals     : 851911245      (15.02 % deleted)
c Memory used           : 391.00 MB
c CPU time              : 3597.42 s
